p cnf 37 104
a 26 13 0
e 1 2 3 4 5 6 7 8 9 10 11 12 14 15 16 17 18 19 20 21 22 23 24 25 27 28 29 30 31 32 33 34 35 36 37 0
-3 -1 0
-3 2 0
1 -2 3 0
-6 -4 0
-6 5 0
4 -5 6 0
-7 -3 0
-7 6 0
3 -6 7 0
-3 5 -8 0
3 -5 -8 0
-3 -5 8 0
3 5 8 0
-8 1 -9 0
8 -1 -9 0
-8 -1 9 0
8 1 9 0
9 4 -10 0
-9 -4 -10 0
9 -4 10 0
-9 4 10 0
11 7 0
11 -10 0
-7 10 -11 0
-14 -12 0
-14 13 0
12 -13 14 0
14 9 -15 0
-14 -9 -15 0
14 -9 15 0
-14 9 15 0
-16 4 0
-16 15 0
-4 -15 16 0
18 -6 0
18 -17 0
6 17 -18 0
-19 15 0
-19 18 0
-15 -18 19 0
16 -19 -20 0
-16 19 -20 0
16 19 20 0
-16 -19 20 0
21 -17 0
21 18 0
17 -18 -21 0
-22 -6 0
-22 21 0
6 -21 22 0
-23 22 0
-23 12 0
-22 -12 23 0
-23 21 -24 0
23 -21 -24 0
-23 -21 24 0
23 21 24 0
25 -20 0
25 24 0
20 -24 -25 0
5 2 -26 0
-5 -2 -26 0
5 -2 26 0
-5 2 26 0
27 25 0
27 26 0
-25 -26 -27 0
-28 -11 0
-28 -27 0
11 27 28 0
29 -12 0
29 17 0
12 -17 -29 0
-30 -13 0
-30 6 0
13 -6 30 0
-31 17 0
-31 21 0
-17 -21 31 0
33 18 0
33 -32 0
-18 32 -33 0
34 31 0
34 -33 0
-31 33 -34 0
-35 30 0
-35 34 0
-30 -34 35 0
-36 -29 0
-36 35 0
29 -35 36 0
37 28 0
37 36 0
-28 -36 -37 0
-37 20 0
-26 7 2 0
-19 -17 -5 25 0
17 -13 35 8 15 0
25 15 23 13 0
-14 33 24 0
28 8 33 1 13 -10 0
16 -25 -17 0
-7 24 -26 -16 13 0
37 0
